DIMENSION: 7
EDGE_WEIGHT_TYPE: EXPLICIT
EDGE_WEIGHT_FORMAT: FULL_MATRIX
EDGE_WEIGHT_SECTION:
32767 32767 12 32767 32767 32767 32767 
32767 32767 32767 93 32767 47 32767 
12 32767 32767 32767 32767 32767 32767 
32767 93 32767 32767 61 32767 26 
32767 32767 32767 61 32767 32767 32767 
32767 47 32767 32767 32767 32767 27 
32767 32767 32767 26 32767 27 32767 
EOF